NAME : a280
COMMENT : drilling problem (Ludwig)
TYPE : TSP
DIMENSION: 280
EDGE_WEIGHT_TYPE : EUC_2D
NODE_COORD_SECTION
Command terminated by signal 9
	Command being timed: "./Held-Karp_algorithm ./dataset/a280.tsp"
	User time (seconds): 0.84
	System time (seconds): 8.75
	Percent of CPU this job got: 100%
	Elapsed (wall clock) time (h:mm:ss or m:ss): 0:09.59
	Average shared text size (kbytes): 0
	Average unshared data size (kbytes): 0
	Average stack size (kbytes): 0
	Average total size (kbytes): 0
	Maximum resident set size (kbytes): 4845472
	Average resident set size (kbytes): 0
	Major (requiring I/O) page faults: 236
	Minor (reclaiming a frame) page faults: 1203300
	Voluntary context switches: 304
	Involuntary context switches: 577
	Swaps: 0
	File system inputs: 49104
	File system outputs: 8
	Socket messages sent: 0
	Socket messages received: 0
	Signals delivered: 0
	Page size (bytes): 4096
	Exit status: 0
